c 3 - XORSAT
p cnf 40 160
6 29 36 0
-6 -29 36 0
-6 29 -36 0
6 -29 -36 0
-14 -21 -32 0
-14 21 32 0
14 -21 32 0
14 21 -32 0
1 14 19 0
-1 -14 19 0
-1 14 -19 0
1 -14 -19 0
4 28 30 0
-4 -28 30 0
-4 28 -30 0
4 -28 -30 0
-5 -11 -21 0
-5 11 21 0
5 -11 21 0
5 11 -21 0
-3 -11 -13 0
-3 11 13 0
3 -11 13 0
3 11 -13 0
-12 -19 -20 0
-12 19 20 0
12 -19 20 0
12 19 -20 0
-13 -23 -26 0
-13 23 26 0
13 -23 26 0
13 23 -26 0
3 24 28 0
-3 -24 28 0
-3 24 -28 0
3 -24 -28 0
-17 -34 -39 0
-17 34 39 0
17 -34 39 0
17 34 -39 0
32 37 39 0
-32 -37 39 0
-32 37 -39 0
32 -37 -39 0
-26 -27 -38 0
-26 27 38 0
26 -27 38 0
26 27 -38 0
4 22 26 0
-4 -22 26 0
-4 22 -26 0
4 -22 -26 0
20 37 38 0
-20 -37 38 0
-20 37 -38 0
20 -37 -38 0
6 2 12 0
-6 -2 12 0
-6 2 -12 0
6 -2 -12 0
-15 -22 -24 0
-15 22 24 0
15 -22 24 0
15 22 -24 0
7 27 29 0
-7 -27 29 0
-7 27 -29 0
7 -27 -29 0
-13 -14 -16 0
-13 14 16 0
13 -14 16 0
13 14 -16 0
-8 -31 -35 0
-8 31 35 0
8 -31 35 0
8 31 -35 0
3 4 9 0
-3 -4 9 0
-3 4 -9 0
3 -4 -9 0
6 10 18 0
-6 -10 18 0
-6 10 -18 0
6 -10 -18 0
33 38 40 0
-33 -38 40 0
-33 38 -40 0
33 -38 -40 0
-5 -17 -31 0
-5 17 31 0
5 -17 31 0
5 17 -31 0
-33 -37 -40 0
-33 37 40 0
33 -37 40 0
33 37 -40 0
-2 -17 -27 0
-2 17 27 0
2 -17 27 0
2 17 -27 0
5 16 39 0
-5 -16 39 0
-5 16 -39 0
5 -16 -39 0
-2 -30 -36 0
-2 30 36 0
2 -30 36 0
2 30 -36 0
7 9 11 0
-7 -9 11 0
-7 9 -11 0
7 -9 -11 0
12 21 25 0
-12 -21 25 0
-12 21 -25 0
12 -21 -25 0
-15 -33 -40 0
-15 33 40 0
15 -33 40 0
15 33 -40 0
1 8 10 0
-1 -8 10 0
-1 8 -10 0
1 -8 -10 0
23 24 35 0
-23 -24 35 0
-23 24 -35 0
23 -24 -35 0
18 22 25 0
-18 -22 25 0
-18 22 -25 0
18 -22 -25 0
19 28 31 0
-19 -28 31 0
-19 28 -31 0
19 -28 -31 0
16 20 25 0
-16 -20 25 0
-16 20 -25 0
16 -20 -25 0
-9 -15 -23 0
-9 15 23 0
9 -15 23 0
9 15 -23 0
29 30 36 0
-29 -30 36 0
-29 30 -36 0
29 -30 -36 0
10 18 34 0
-10 -18 34 0
-10 18 -34 0
10 -18 -34 0
1 7 8 0
-1 -7 8 0
-1 7 -8 0
1 -7 -8 0
32 34 35 0
-32 -34 35 0
-32 34 -35 0
32 -34 -35 0
